WARNING: for repeatability, setting FPU to use double precision
============================[ Problem Statistics ]=============================
|                                                                             |
|  Number of symmetries:          79                                          |
|  Number of invertingSyms:        0                                          |
|  Number of variables:          1640                                         |
|  Number of clauses:           32841                                         |
|  Parse time:                   0.00 s                                       |
|                                                                             |
============================[ Search Statistics ]==============================
| Conflicts |          ORIGINAL         |          LEARNT          | Progress |
|           |    Vars  Clauses Literals |    Limit  Clauses Lit/Cl |          |
===============================================================================
|       100 |    1640    32841    67240 |    12041      100    460 |  0.000 % |
|       250 |    1640    32841    67240 |    13245      281    313 |  0.000 % |
|       475 |    1640    32841    67240 |    14570      538    239 |  0.000 % |
|       812 |    1640    32841    67240 |    16027      902    238 |  0.000 % |
|      1318 |    1640    32841    67240 |    17630     1538    230 |  0.000 % |
|      2077 |    1640    32841    67240 |    19393     2538    205 |  0.000 % |
|      3216 |    1640    32841    67240 |    21332     3856    224 |  0.000 % |
|      4924 |    1640    32841    67240 |    23465     6108    231 |  0.000 % |
|      7486 |    1640    32841    67240 |    25812     9072    238 |  0.000 % |
|     11330 |    1640    32841    67240 |    28393    13414    247 |  0.000 % |
|     17096 |    1640    32841    67240 |    31233    19888    249 |  0.000 % |
|     25745 |    1640    32841    67240 |    34356    29361    244 |  0.000 % |
|     38719 |    1640    32841    67240 |    37792    22041    224 |  0.000 % |
|     58180 |    1640    32841    67240 |    41571    19625    228 |  0.000 % |
|     87372 |    1640    32841    67240 |    45728    25672    275 |  0.000 % |
|    131161 |    1640    32841    67240 |    50301    42980    256 |  0.000 % |
|    196845 |    1640    32841    67240 |    55331    40713    294 |  0.000 % |
|    295371 |    1640    32841    67240 |    60864    24722    260 |  0.000 % |
|    443160 |    1640    32841    67240 |    66950    42969    258 |  0.002 % |
|    664843 |    1640    32841    67240 |    73645    20096    304 |  0.000 % |
|    997368 |    1640    32841    67240 |    81010    32477    361 |  0.000 % |
|   1496156 |    1640    32841    67240 |    89111    45158    273 |  0.000 % |
|   2244338 |    1640    32841    67240 |    98022    36415    314 |  0.000 % |
|   3366612 |    1640    32841    67240 |   107825    92116    271 |  0.000 % |
|   5050023 |    1640    32841    67240 |   118607    37479    330 |  0.000 % |
|   7575139 |    1640    32841    67240 |   130468   111922    314 |  0.000 % |
|  11362814 |    1640    32841    67240 |   143515   122247    450 |  0.000 % |
|  17044326 |    1640    32841    67240 |   157866    46408    453 |  0.000 % |
|  25566595 |    1640    32841    67240 |   173653    62281    373 |  0.000 % |
===============================================================================
restarts              : 45053
conflicts             : 32370782       (6398 /sec)
symconflicts          : 792908         (157 /sec)
decisions             : 78339879       (0.00 % random) (15483 /sec)
propagations          : 851405784      (168274 /sec)
sympropagations       : 3007078        (594 /sec)
conflict literals     : 11129688865    (3.22 % deleted)
Memory used           : 1044.00 MB
CPU time              : 5059.63 s

INDETERMINATE
